job_count = 50 ;
duration = [|19, 5, 17, 5, 16, 10, 3, 10, 6, 6|19, 14, 15, 7, 6, 14, 15, 7, 8, 8|11, 23, 3, 18, 12, 11, 5, 7, 6, 4|22, 7, 10, 16, 15, 18, 14, 9, 14, 5|16, 16, 16, 18, 10, 9, 15, 16, 10, 10|14, 23, 6, 9, 3, 14, 17, 16, 8, 5|20, 4, 21, 15, 19, 15, 14, 7, 12, 11|21, 12, 18, 21, 9, 11, 5, 4, 14, 6|3, 7, 5, 12, 9, 6, 5, 3, 11, 8|16, 19, 5, 14, 19, 5, 11, 12, 8, 6|20, 11, 19, 21, 14, 12, 7, 11, 15, 12|8, 7, 7, 15, 16, 16, 14, 9, 5, 9|4, 9, 11, 17, 18, 11, 15, 15, 4, 4|11, 22, 22, 9, 2, 10, 9, 12, 12, 10|22, 7, 19, 19, 18, 7, 6, 10, 8, 9|2, 3, 13, 18, 14, 13, 12, 9, 7, 10|17, 6, 12, 6, 16, 18, 7, 11, 6, 12|9, 4, 22, 5, 9, 14, 8, 15, 15, 14|19, 15, 4, 14, 20, 13, 3, 9, 8, 4|3, 4, 3, 18, 13, 12, 13, 5, 2, 7|6, 17, 10, 21, 10, 12, 2, 16, 5, 5|9, 21, 10, 17, 10, 3, 7, 3, 10, 8|14, 10, 21, 15, 19, 2, 13, 6, 9, 2|16, 5, 4, 6, 7, 17, 13, 7, 5, 12|6, 7, 18, 13, 19, 16, 8, 8, 13, 14|14, 2, 20, 13, 19, 8, 9, 11, 6, 7|22, 20, 11, 21, 3, 6, 11, 7, 7, 11|8, 15, 17, 7, 19, 13, 2, 14, 4, 8|16, 8, 4, 4, 12, 8, 10, 16, 7, 4|21, 18, 15, 21, 15, 18, 16, 2, 9, 14|24, 9, 11, 9, 20, 12, 10, 9, 8, 2|22, 17, 10, 6, 12, 8, 3, 10, 8, 11|10, 8, 9, 3, 3, 9, 17, 14, 8, 2|5, 13, 9, 13, 14, 10, 8, 16, 4, 2|22, 3, 13, 10, 18, 14, 11, 6, 2, 4|24, 21, 3, 16, 6, 12, 17, 5, 15, 5|21, 13, 13, 5, 13, 17, 14, 15, 7, 4|21, 9, 22, 5, 8, 5, 8, 2, 2, 9|24, 3, 11, 9, 5, 5, 14, 2, 14, 13|18, 9, 9, 5, 14, 4, 9, 16, 13, 12|12, 8, 7, 10, 11, 4, 8, 14, 12, 12|22, 17, 15, 2, 7, 18, 16, 7, 15, 10|20, 9, 4, 20, 2, 4, 3, 3, 6, 6|2, 6, 15, 20, 20, 3, 7, 15, 8, 8|9, 18, 18, 5, 17, 13, 8, 12, 13, 9|23, 23, 2, 17, 13, 4, 7, 16, 6, 6|6, 15, 9, 7, 2, 11, 13, 7, 9, 6|11, 10, 2, 4, 5, 15, 14, 13, 12, 8|14, 8, 14, 20, 19, 4, 15, 9, 15, 13|4, 14, 4, 14, 16, 11, 14, 8, 14, 12|] ;
machine_count = 10 ;
cost = [|28, 17, 33, 21, 27, 25, 45, 28, 46, 47|21, 19, 32, 22, 37, 25, 25, 45, 40, 38|22, 32, 20, 39, 32, 40, 38, 42, 26, 38|30, 26, 18, 24, 41, 34, 26, 37, 28, 44|28, 21, 30, 30, 33, 39, 30, 32, 49, 35|21, 27, 20, 34, 26, 23, 37, 33, 48, 33|22, 29, 32, 37, 33, 39, 29, 44, 42, 42|18, 25, 32, 20, 41, 35, 31, 33, 32, 49|18, 18, 30, 32, 41, 41, 45, 40, 50, 31|28, 28, 24, 36, 34, 42, 26, 26, 51, 49|24, 30, 35, 30, 28, 40, 34, 48, 45, 40|31, 17, 26, 35, 31, 25, 39, 40, 26, 47|20, 29, 20, 38, 27, 30, 36, 46, 36, 53|22, 28, 33, 21, 29, 28, 31, 34, 38, 37|16, 24, 23, 30, 24, 24, 32, 25, 50, 42|19, 24, 26, 20, 32, 42, 35, 36, 39, 36|23, 24, 21, 21, 40, 42, 26, 33, 42, 47|20, 24, 32, 20, 30, 32, 23, 31, 28, 44|27, 20, 35, 29, 21, 35, 33, 35, 26, 40|27, 33, 35, 20, 29, 36, 32, 31, 32, 36|16, 32, 32, 23, 26, 24, 41, 28, 26, 45|17, 19, 23, 24, 41, 43, 30, 46, 33, 32|20, 31, 31, 26, 33, 40, 37, 33, 50, 29|26, 31, 20, 23, 29, 29, 26, 35, 42, 34|23, 29, 27, 29, 39, 22, 26, 40, 42, 51|16, 20, 34, 30, 41, 22, 43, 42, 38, 35|25, 33, 18, 24, 40, 37, 35, 26, 31, 43|16, 25, 28, 26, 27, 43, 23, 38, 45, 31|29, 22, 27, 25, 40, 27, 24, 30, 42, 49|29, 31, 24, 31, 29, 35, 32, 37, 47, 38|29, 27, 22, 27, 31, 33, 38, 32, 36, 43|26, 28, 34, 31, 27, 29, 29, 36, 34, 52|25, 21, 35, 39, 24, 31, 23, 32, 38, 29|18, 21, 29, 33, 36, 22, 31, 47, 42, 31|17, 26, 21, 27, 22, 35, 44, 38, 47, 49|28, 23, 26, 39, 31, 27, 45, 39, 35, 31|30, 30, 28, 21, 30, 27, 35, 45, 27, 45|23, 26, 25, 28, 22, 31, 29, 42, 40, 51|16, 18, 29, 39, 29, 37, 33, 42, 34, 53|24, 33, 29, 38, 32, 34, 28, 33, 51, 33|24, 23, 35, 34, 28, 43, 26, 43, 49, 38|22, 21, 27, 20, 28, 30, 40, 25, 35, 35|24, 22, 32, 26, 37, 37, 27, 35, 27, 48|31, 25, 18, 32, 26, 34, 29, 45, 43, 47|28, 32, 26, 38, 23, 30, 37, 40, 39, 43|19, 23, 19, 30, 35, 24, 27, 47, 34, 32|29, 26, 20, 39, 31, 35, 24, 33, 49, 29|31, 24, 18, 26, 39, 25, 36, 44, 50, 32|28, 27, 23, 25, 36, 23, 23, 30, 33, 45|26, 21, 35, 38, 33, 42, 23, 38, 47, 42|] ;
deadline = [33, 33, 33, 33, 33, 33, 33, 33, 33, 33, 33, 33, 33, 33, 33, 33, 33, 33, 33, 33, 33, 33, 33, 33, 33, 33, 33, 33, 33, 33, 33, 33, 33, 33, 33, 33, 33, 33, 33, 33, 33, 33, 33, 33, 33, 33, 33, 33, 33, 33] ;
release = [0, 0, 0, 0, 0, 0, 0, 0, 0, 0, 0, 0, 0, 0, 0, 0, 0, 0, 0, 0, 0, 0, 0, 0, 0, 0, 0, 0, 0, 0, 0, 0, 0, 0, 0, 0, 0, 0, 0, 0, 0, 0, 0, 0, 0, 0, 0, 0, 0, 0] ;
resource = [|6, 6, 6, 6, 6, 6, 6, 6, 6, 6|3, 3, 3, 3, 3, 3, 3, 3, 3, 3|7, 7, 7, 7, 7, 7, 7, 7, 7, 7|7, 7, 7, 7, 7, 7, 7, 7, 7, 7|1, 1, 1, 1, 1, 1, 1, 1, 1, 1|4, 4, 4, 4, 4, 4, 4, 4, 4, 4|8, 8, 8, 8, 8, 8, 8, 8, 8, 8|9, 9, 9, 9, 9, 9, 9, 9, 9, 9|3, 3, 3, 3, 3, 3, 3, 3, 3, 3|7, 7, 7, 7, 7, 7, 7, 7, 7, 7|4, 4, 4, 4, 4, 4, 4, 4, 4, 4|8, 8, 8, 8, 8, 8, 8, 8, 8, 8|3, 3, 3, 3, 3, 3, 3, 3, 3, 3|6, 6, 6, 6, 6, 6, 6, 6, 6, 6|6, 6, 6, 6, 6, 6, 6, 6, 6, 6|2, 2, 2, 2, 2, 2, 2, 2, 2, 2|3, 3, 3, 3, 3, 3, 3, 3, 3, 3|3, 3, 3, 3, 3, 3, 3, 3, 3, 3|8, 8, 8, 8, 8, 8, 8, 8, 8, 8|1, 1, 1, 1, 1, 1, 1, 1, 1, 1|6, 6, 6, 6, 6, 6, 6, 6, 6, 6|8, 8, 8, 8, 8, 8, 8, 8, 8, 8|9, 9, 9, 9, 9, 9, 9, 9, 9, 9|4, 4, 4, 4, 4, 4, 4, 4, 4, 4|4, 4, 4, 4, 4, 4, 4, 4, 4, 4|3, 3, 3, 3, 3, 3, 3, 3, 3, 3|6, 6, 6, 6, 6, 6, 6, 6, 6, 6|7, 7, 7, 7, 7, 7, 7, 7, 7, 7|2, 2, 2, 2, 2, 2, 2, 2, 2, 2|2, 2, 2, 2, 2, 2, 2, 2, 2, 2|1, 1, 1, 1, 1, 1, 1, 1, 1, 1|5, 5, 5, 5, 5, 5, 5, 5, 5, 5|2, 2, 2, 2, 2, 2, 2, 2, 2, 2|7, 7, 7, 7, 7, 7, 7, 7, 7, 7|3, 3, 3, 3, 3, 3, 3, 3, 3, 3|9, 9, 9, 9, 9, 9, 9, 9, 9, 9|8, 8, 8, 8, 8, 8, 8, 8, 8, 8|8, 8, 8, 8, 8, 8, 8, 8, 8, 8|9, 9, 9, 9, 9, 9, 9, 9, 9, 9|1, 1, 1, 1, 1, 1, 1, 1, 1, 1|5, 5, 5, 5, 5, 5, 5, 5, 5, 5|1, 1, 1, 1, 1, 1, 1, 1, 1, 1|9, 9, 9, 9, 9, 9, 9, 9, 9, 9|6, 6, 6, 6, 6, 6, 6, 6, 6, 6|6, 6, 6, 6, 6, 6, 6, 6, 6, 6|3, 3, 3, 3, 3, 3, 3, 3, 3, 3|7, 7, 7, 7, 7, 7, 7, 7, 7, 7|6, 6, 6, 6, 6, 6, 6, 6, 6, 6|6, 6, 6, 6, 6, 6, 6, 6, 6, 6|5, 5, 5, 5, 5, 5, 5, 5, 5, 5|] ;
capacities = [10, 10, 10, 10, 10, 10, 10, 10, 10, 10] ;
